TOUR_SECTION
1
181
147
87
2
7
28
101
31
16
106
117
166
64
148
89
138
8
104
159
46
178
174
77
141
107
69
37
187
54
128
84
58
100
19
199
137
57
186
39
96
170
118
86
97
59
120
85
98
161
152
195
127
188
105
34
61
194
167
122
36
62
154
140
26
158
132
108
6
156
139
150
135
201
123
184
143
83
196
72
111
9
119
52
160
35
95
20
49
197
124
38
4
165
149
79
13
145
151
175
70
185
33
94
169
115
192
173
56
27
190
189
155
183
114
10
103
21
125
71
24
45
90
44
11
200
99
55
12
182
17
53
157
29
42
73
116
129
88
180
146
133
75
14
198
113
50
5
76
162
102
112
142
22
80
74
23
131
176
193
177
171
63
168
164
134
51
43
163
60
130
18
126
32
121
30
153
15
136
41
65
25
93
3
68
91
67
40
109
78
47
110
81
179
82
48
191
92
66
172
144
-1
EOF